p cnf 448 2472
4 0
-1 0
-2 0
-3 0
-5 0
-6 0
-7 0
53 11 0
-53 -11 0
10 0
-8 0
-9 0
-11 0
-12 0
-13 0
-14 0
3 17 59 0
-3 -17 0
-3 -59 0
-17 -59 0
15 16 17 18 19 20 21 0
-15 -344 0
-15 -345 0
-15 -346 0
-16 344 0
-16 -345 0
-16 -346 0
-17 -344 0
-17 345 0
-17 -346 0
-18 344 0
-18 345 0
-18 -346 0
-19 -344 0
-19 -345 0
-19 346 0
-20 344 0
-20 -345 0
-20 346 0
-21 -344 0
-21 345 0
-21 346 0
-15 8 22 0
-15 8 64 0
-15 22 64 0
-16 9 23 0
-16 9 65 0
-16 23 65 0
-17 10 24 0
-17 10 66 0
-17 24 66 0
-18 11 25 0
-18 11 67 0
-18 25 67 0
-19 12 26 0
-19 12 68 0
-19 26 68 0
-20 13 27 0
-20 13 69 0
-20 27 69 0
-21 14 28 0
-21 14 70 0
-21 28 70 0
-15 -8 -22 -64 0
-16 -9 -23 -65 0
-17 -10 -24 -66 0
-18 -11 -25 -67 0
-19 -12 -26 -68 0
-20 -13 -27 -69 0
-21 -14 -28 -70 0
22 23 24 25 26 27 28 0
-22 -347 0
-22 -348 0
-22 -349 0
-23 347 0
-23 -348 0
-23 -349 0
-24 -347 0
-24 348 0
-24 -349 0
-25 347 0
-25 348 0
-25 -349 0
-26 -347 0
-26 -348 0
-26 349 0
-27 347 0
-27 -348 0
-27 349 0
-28 -347 0
-28 348 0
-28 349 0
-22 15 29 0
-22 15 71 0
-22 29 71 0
-23 16 30 0
-23 16 72 0
-23 30 72 0
-24 17 31 0
-24 17 73 0
-24 31 73 0
-25 18 32 0
-25 18 74 0
-25 32 74 0
-26 19 33 0
-26 19 75 0
-26 33 75 0
-27 20 34 0
-27 20 76 0
-27 34 76 0
-28 21 35 0
-28 21 77 0
-28 35 77 0
-22 -15 -29 -71 0
-23 -16 -30 -72 0
-24 -17 -31 -73 0
-25 -18 -32 -74 0
-26 -19 -33 -75 0
-27 -20 -34 -76 0
-28 -21 -35 -77 0
29 30 31 32 33 34 35 0
-29 -350 0
-29 -351 0
-29 -352 0
-30 350 0
-30 -351 0
-30 -352 0
-31 -350 0
-31 351 0
-31 -352 0
-32 350 0
-32 351 0
-32 -352 0
-33 -350 0
-33 -351 0
-33 352 0
-34 350 0
-34 -351 0
-34 352 0
-35 -350 0
-35 351 0
-35 352 0
-29 22 36 0
-29 22 78 0
-29 36 78 0
-30 23 37 0
-30 23 79 0
-30 37 79 0
-31 24 38 0
-31 24 80 0
-31 38 80 0
-32 25 39 0
-32 25 81 0
-32 39 81 0
-33 26 40 0
-33 26 82 0
-33 40 82 0
-34 27 41 0
-34 27 83 0
-34 41 83 0
-35 28 42 0
-35 28 84 0
-35 42 84 0
-29 -22 -36 -78 0
-30 -23 -37 -79 0
-31 -24 -38 -80 0
-32 -25 -39 -81 0
-33 -26 -40 -82 0
-34 -27 -41 -83 0
-35 -28 -42 -84 0
36 37 38 39 40 41 42 0
-36 -353 0
-36 -354 0
-36 -355 0
-37 353 0
-37 -354 0
-37 -355 0
-38 -353 0
-38 354 0
-38 -355 0
-39 353 0
-39 354 0
-39 -355 0
-40 -353 0
-40 -354 0
-40 355 0
-41 353 0
-41 -354 0
-41 355 0
-42 -353 0
-42 354 0
-42 355 0
-36 29 43 0
-36 29 85 0
-36 43 85 0
-37 30 44 0
-37 30 86 0
-37 44 86 0
-38 31 45 0
-38 31 87 0
-38 45 87 0
-39 32 46 0
-39 32 88 0
-39 46 88 0
-40 33 47 0
-40 33 89 0
-40 47 89 0
-41 34 48 0
-41 34 90 0
-41 48 90 0
-42 35 49 0
-42 35 91 0
-42 49 91 0
-36 -29 -43 -85 0
-37 -30 -44 -86 0
-38 -31 -45 -87 0
-39 -32 -46 -88 0
-40 -33 -47 -89 0
-41 -34 -48 -90 0
-42 -35 -49 -91 0
45 0
-43 0
-44 0
-46 0
-47 0
-48 0
-49 0
94 38 0
-94 -38 0
50 51 52 53 54 55 56 0
-50 -356 0
-50 -357 0
-50 -358 0
-51 356 0
-51 -357 0
-51 -358 0
-52 -356 0
-52 357 0
-52 -358 0
-53 356 0
-53 357 0
-53 -358 0
-54 -356 0
-54 -357 0
-54 358 0
-55 356 0
-55 -357 0
-55 358 0
-56 -356 0
-56 357 0
-56 358 0
-50 99 57 0
-50 99 1 0
-50 57 1 0
-51 100 58 0
-51 100 2 0
-51 58 2 0
-52 101 59 0
-52 101 3 0
-52 59 3 0
-53 102 60 0
-53 102 4 0
-53 60 4 0
-54 103 61 0
-54 103 5 0
-54 61 5 0
-55 104 62 0
-55 104 6 0
-55 62 6 0
-56 105 63 0
-56 105 7 0
-56 63 7 0
-50 -99 -57 -1 0
-51 -100 -58 -2 0
-52 -101 -59 -3 0
-53 -102 -60 -4 0
-54 -103 -61 -5 0
-55 -104 -62 -6 0
-56 -105 -63 -7 0
57 58 59 60 61 62 63 0
-57 -359 0
-57 -360 0
-57 -361 0
-58 359 0
-58 -360 0
-58 -361 0
-59 -359 0
-59 360 0
-59 -361 0
-60 359 0
-60 360 0
-60 -361 0
-61 -359 0
-61 -360 0
-61 361 0
-62 359 0
-62 -360 0
-62 361 0
-63 -359 0
-63 360 0
-63 361 0
-57 106 64 8 0
-57 106 64 50 0
-57 106 8 50 0
-57 64 8 50 0
-58 107 65 9 0
-58 107 65 51 0
-58 107 9 51 0
-58 65 9 51 0
-59 108 66 10 0
-59 108 66 52 0
-59 108 10 52 0
-59 66 10 52 0
-60 109 67 11 0
-60 109 67 53 0
-60 109 11 53 0
-60 67 11 53 0
-61 110 68 12 0
-61 110 68 54 0
-61 110 12 54 0
-61 68 12 54 0
-62 111 69 13 0
-62 111 69 55 0
-62 111 13 55 0
-62 69 13 55 0
-63 112 70 14 0
-63 112 70 56 0
-63 112 14 56 0
-63 70 14 56 0
-57 -106 -64 -8 0
-57 -106 -64 -50 0
-57 -106 -8 -50 0
-57 -64 -8 -50 0
-58 -107 -65 -9 0
-58 -107 -65 -51 0
-58 -107 -9 -51 0
-58 -65 -9 -51 0
-59 -108 -66 -10 0
-59 -108 -66 -52 0
-59 -108 -10 -52 0
-59 -66 -10 -52 0
-60 -109 -67 -11 0
-60 -109 -67 -53 0
-60 -109 -11 -53 0
-60 -67 -11 -53 0
-61 -110 -68 -12 0
-61 -110 -68 -54 0
-61 -110 -12 -54 0
-61 -68 -12 -54 0
-62 -111 -69 -13 0
-62 -111 -69 -55 0
-62 -111 -13 -55 0
-62 -69 -13 -55 0
-63 -112 -70 -14 0
-63 -112 -70 -56 0
-63 -112 -14 -56 0
-63 -70 -14 -56 0
64 65 66 67 68 69 70 0
-64 -362 0
-64 -363 0
-64 -364 0
-65 362 0
-65 -363 0
-65 -364 0
-66 -362 0
-66 363 0
-66 -364 0
-67 362 0
-67 363 0
-67 -364 0
-68 -362 0
-68 -363 0
-68 364 0
-69 362 0
-69 -363 0
-69 364 0
-70 -362 0
-70 363 0
-70 364 0
-64 113 71 15 0
-64 113 71 57 0
-64 113 15 57 0
-64 71 15 57 0
-65 114 72 16 0
-65 114 72 58 0
-65 114 16 58 0
-65 72 16 58 0
-66 115 73 17 0
-66 115 73 59 0
-66 115 17 59 0
-66 73 17 59 0
-67 116 74 18 0
-67 116 74 60 0
-67 116 18 60 0
-67 74 18 60 0
-68 117 75 19 0
-68 117 75 61 0
-68 117 19 61 0
-68 75 19 61 0
-69 118 76 20 0
-69 118 76 62 0
-69 118 20 62 0
-69 76 20 62 0
-70 119 77 21 0
-70 119 77 63 0
-70 119 21 63 0
-70 77 21 63 0
-64 -113 -71 -15 0
-64 -113 -71 -57 0
-64 -113 -15 -57 0
-64 -71 -15 -57 0
-65 -114 -72 -16 0
-65 -114 -72 -58 0
-65 -114 -16 -58 0
-65 -72 -16 -58 0
-66 -115 -73 -17 0
-66 -115 -73 -59 0
-66 -115 -17 -59 0
-66 -73 -17 -59 0
-67 -116 -74 -18 0
-67 -116 -74 -60 0
-67 -116 -18 -60 0
-67 -74 -18 -60 0
-68 -117 -75 -19 0
-68 -117 -75 -61 0
-68 -117 -19 -61 0
-68 -75 -19 -61 0
-69 -118 -76 -20 0
-69 -118 -76 -62 0
-69 -118 -20 -62 0
-69 -76 -20 -62 0
-70 -119 -77 -21 0
-70 -119 -77 -63 0
-70 -119 -21 -63 0
-70 -77 -21 -63 0
71 72 73 74 75 76 77 0
-71 -365 0
-71 -366 0
-71 -367 0
-72 365 0
-72 -366 0
-72 -367 0
-73 -365 0
-73 366 0
-73 -367 0
-74 365 0
-74 366 0
-74 -367 0
-75 -365 0
-75 -366 0
-75 367 0
-76 365 0
-76 -366 0
-76 367 0
-77 -365 0
-77 366 0
-77 367 0
-71 120 78 22 0
-71 120 78 64 0
-71 120 22 64 0
-71 78 22 64 0
-72 121 79 23 0
-72 121 79 65 0
-72 121 23 65 0
-72 79 23 65 0
-73 122 80 24 0
-73 122 80 66 0
-73 122 24 66 0
-73 80 24 66 0
-74 123 81 25 0
-74 123 81 67 0
-74 123 25 67 0
-74 81 25 67 0
-75 124 82 26 0
-75 124 82 68 0
-75 124 26 68 0
-75 82 26 68 0
-76 125 83 27 0
-76 125 83 69 0
-76 125 27 69 0
-76 83 27 69 0
-77 126 84 28 0
-77 126 84 70 0
-77 126 28 70 0
-77 84 28 70 0
-71 -120 -78 -22 0
-71 -120 -78 -64 0
-71 -120 -22 -64 0
-71 -78 -22 -64 0
-72 -121 -79 -23 0
-72 -121 -79 -65 0
-72 -121 -23 -65 0
-72 -79 -23 -65 0
-73 -122 -80 -24 0
-73 -122 -80 -66 0
-73 -122 -24 -66 0
-73 -80 -24 -66 0
-74 -123 -81 -25 0
-74 -123 -81 -67 0
-74 -123 -25 -67 0
-74 -81 -25 -67 0
-75 -124 -82 -26 0
-75 -124 -82 -68 0
-75 -124 -26 -68 0
-75 -82 -26 -68 0
-76 -125 -83 -27 0
-76 -125 -83 -69 0
-76 -125 -27 -69 0
-76 -83 -27 -69 0
-77 -126 -84 -28 0
-77 -126 -84 -70 0
-77 -126 -28 -70 0
-77 -84 -28 -70 0
78 79 80 81 82 83 84 0
-78 -368 0
-78 -369 0
-78 -370 0
-79 368 0
-79 -369 0
-79 -370 0
-80 -368 0
-80 369 0
-80 -370 0
-81 368 0
-81 369 0
-81 -370 0
-82 -368 0
-82 -369 0
-82 370 0
-83 368 0
-83 -369 0
-83 370 0
-84 -368 0
-84 369 0
-84 370 0
-78 127 85 29 0
-78 127 85 71 0
-78 127 29 71 0
-78 85 29 71 0
-79 128 86 30 0
-79 128 86 72 0
-79 128 30 72 0
-79 86 30 72 0
-80 129 87 31 0
-80 129 87 73 0
-80 129 31 73 0
-80 87 31 73 0
-81 130 88 32 0
-81 130 88 74 0
-81 130 32 74 0
-81 88 32 74 0
-82 131 89 33 0
-82 131 89 75 0
-82 131 33 75 0
-82 89 33 75 0
-83 132 90 34 0
-83 132 90 76 0
-83 132 34 76 0
-83 90 34 76 0
-84 133 91 35 0
-84 133 91 77 0
-84 133 35 77 0
-84 91 35 77 0
-78 -127 -85 -29 0
-78 -127 -85 -71 0
-78 -127 -29 -71 0
-78 -85 -29 -71 0
-79 -128 -86 -30 0
-79 -128 -86 -72 0
-79 -128 -30 -72 0
-79 -86 -30 -72 0
-80 -129 -87 -31 0
-80 -129 -87 -73 0
-80 -129 -31 -73 0
-80 -87 -31 -73 0
-81 -130 -88 -32 0
-81 -130 -88 -74 0
-81 -130 -32 -74 0
-81 -88 -32 -74 0
-82 -131 -89 -33 0
-82 -131 -89 -75 0
-82 -131 -33 -75 0
-82 -89 -33 -75 0
-83 -132 -90 -34 0
-83 -132 -90 -76 0
-83 -132 -34 -76 0
-83 -90 -34 -76 0
-84 -133 -91 -35 0
-84 -133 -91 -77 0
-84 -133 -35 -77 0
-84 -91 -35 -77 0
85 86 87 88 89 90 91 0
-85 -371 0
-85 -372 0
-85 -373 0
-86 371 0
-86 -372 0
-86 -373 0
-87 -371 0
-87 372 0
-87 -373 0
-88 371 0
-88 372 0
-88 -373 0
-89 -371 0
-89 -372 0
-89 373 0
-90 371 0
-90 -372 0
-90 373 0
-91 -371 0
-91 372 0
-91 373 0
-85 134 92 36 0
-85 134 92 78 0
-85 134 36 78 0
-85 92 36 78 0
-86 135 93 37 0
-86 135 93 79 0
-86 135 37 79 0
-86 93 37 79 0
-87 136 94 38 0
-87 136 94 80 0
-87 136 38 80 0
-87 94 38 80 0
-88 137 95 39 0
-88 137 95 81 0
-88 137 39 81 0
-88 95 39 81 0
-89 138 96 40 0
-89 138 96 82 0
-89 138 40 82 0
-89 96 40 82 0
-90 139 97 41 0
-90 139 97 83 0
-90 139 41 83 0
-90 97 41 83 0
-91 140 98 42 0
-91 140 98 84 0
-91 140 42 84 0
-91 98 42 84 0
-85 -134 -92 -36 0
-85 -134 -92 -78 0
-85 -134 -36 -78 0
-85 -92 -36 -78 0
-86 -135 -93 -37 0
-86 -135 -93 -79 0
-86 -135 -37 -79 0
-86 -93 -37 -79 0
-87 -136 -94 -38 0
-87 -136 -94 -80 0
-87 -136 -38 -80 0
-87 -94 -38 -80 0
-88 -137 -95 -39 0
-88 -137 -95 -81 0
-88 -137 -39 -81 0
-88 -95 -39 -81 0
-89 -138 -96 -40 0
-89 -138 -96 -82 0
-89 -138 -40 -82 0
-89 -96 -40 -82 0
-90 -139 -97 -41 0
-90 -139 -97 -83 0
-90 -139 -41 -83 0
-90 -97 -41 -83 0
-91 -140 -98 -42 0
-91 -140 -98 -84 0
-91 -140 -42 -84 0
-91 -98 -42 -84 0
93 0
-92 0
-94 0
-95 0
-96 0
-97 0
-98 0
142 86 44 0
-142 -86 0
-142 -44 0
-86 -44 0
105 0
-99 0
-100 0
-101 0
-102 0
-103 0
-104 0
154 112 56 0
-154 -112 0
-154 -56 0
-112 -56 0
109 0
-106 0
-107 0
-108 0
-110 0
-111 0
-112 0
158 116 60 102 0
-158 -116 0
-158 -60 0
-158 -102 0
-116 -60 0
-116 -102 0
-60 -102 0
113 114 115 116 117 118 119 0
-113 -374 0
-113 -375 0
-113 -376 0
-114 374 0
-114 -375 0
-114 -376 0
-115 -374 0
-115 375 0
-115 -376 0
-116 374 0
-116 375 0
-116 -376 0
-117 -374 0
-117 -375 0
-117 376 0
-118 374 0
-118 -375 0
-118 376 0
-119 -374 0
-119 375 0
-119 376 0
-113 162 120 64 0
-113 162 120 106 0
-113 162 64 106 0
-113 120 64 106 0
-114 163 121 65 0
-114 163 121 107 0
-114 163 65 107 0
-114 121 65 107 0
-115 164 122 66 0
-115 164 122 108 0
-115 164 66 108 0
-115 122 66 108 0
-116 165 123 67 0
-116 165 123 109 0
-116 165 67 109 0
-116 123 67 109 0
-117 166 124 68 0
-117 166 124 110 0
-117 166 68 110 0
-117 124 68 110 0
-118 167 125 69 0
-118 167 125 111 0
-118 167 69 111 0
-118 125 69 111 0
-119 168 126 70 0
-119 168 126 112 0
-119 168 70 112 0
-119 126 70 112 0
-113 -162 -120 -64 0
-113 -162 -120 -106 0
-113 -162 -64 -106 0
-113 -120 -64 -106 0
-114 -163 -121 -65 0
-114 -163 -121 -107 0
-114 -163 -65 -107 0
-114 -121 -65 -107 0
-115 -164 -122 -66 0
-115 -164 -122 -108 0
-115 -164 -66 -108 0
-115 -122 -66 -108 0
-116 -165 -123 -67 0
-116 -165 -123 -109 0
-116 -165 -67 -109 0
-116 -123 -67 -109 0
-117 -166 -124 -68 0
-117 -166 -124 -110 0
-117 -166 -68 -110 0
-117 -124 -68 -110 0
-118 -167 -125 -69 0
-118 -167 -125 -111 0
-118 -167 -69 -111 0
-118 -125 -69 -111 0
-119 -168 -126 -70 0
-119 -168 -126 -112 0
-119 -168 -70 -112 0
-119 -126 -70 -112 0
120 121 122 123 124 125 126 0
-120 -377 0
-120 -378 0
-120 -379 0
-121 377 0
-121 -378 0
-121 -379 0
-122 -377 0
-122 378 0
-122 -379 0
-123 377 0
-123 378 0
-123 -379 0
-124 -377 0
-124 -378 0
-124 379 0
-125 377 0
-125 -378 0
-125 379 0
-126 -377 0
-126 378 0
-126 379 0
-120 169 127 71 0
-120 169 127 113 0
-120 169 71 113 0
-120 127 71 113 0
-121 170 128 72 0
-121 170 128 114 0
-121 170 72 114 0
-121 128 72 114 0
-122 171 129 73 0
-122 171 129 115 0
-122 171 73 115 0
-122 129 73 115 0
-123 172 130 74 0
-123 172 130 116 0
-123 172 74 116 0
-123 130 74 116 0
-124 173 131 75 0
-124 173 131 117 0
-124 173 75 117 0
-124 131 75 117 0
-125 174 132 76 0
-125 174 132 118 0
-125 174 76 118 0
-125 132 76 118 0
-126 175 133 77 0
-126 175 133 119 0
-126 175 77 119 0
-126 133 77 119 0
-120 -169 -127 -71 0
-120 -169 -127 -113 0
-120 -169 -71 -113 0
-120 -127 -71 -113 0
-121 -170 -128 -72 0
-121 -170 -128 -114 0
-121 -170 -72 -114 0
-121 -128 -72 -114 0
-122 -171 -129 -73 0
-122 -171 -129 -115 0
-122 -171 -73 -115 0
-122 -129 -73 -115 0
-123 -172 -130 -74 0
-123 -172 -130 -116 0
-123 -172 -74 -116 0
-123 -130 -74 -116 0
-124 -173 -131 -75 0
-124 -173 -131 -117 0
-124 -173 -75 -117 0
-124 -131 -75 -117 0
-125 -174 -132 -76 0
-125 -174 -132 -118 0
-125 -174 -76 -118 0
-125 -132 -76 -118 0
-126 -175 -133 -77 0
-126 -175 -133 -119 0
-126 -175 -77 -119 0
-126 -133 -77 -119 0
127 128 129 130 131 132 133 0
-127 -380 0
-127 -381 0
-127 -382 0
-128 380 0
-128 -381 0
-128 -382 0
-129 -380 0
-129 381 0
-129 -382 0
-130 380 0
-130 381 0
-130 -382 0
-131 -380 0
-131 -381 0
-131 382 0
-132 380 0
-132 -381 0
-132 382 0
-133 -380 0
-133 381 0
-133 382 0
-127 176 134 78 0
-127 176 134 120 0
-127 176 78 120 0
-127 134 78 120 0
-128 177 135 79 0
-128 177 135 121 0
-128 177 79 121 0
-128 135 79 121 0
-129 178 136 80 0
-129 178 136 122 0
-129 178 80 122 0
-129 136 80 122 0
-130 179 137 81 0
-130 179 137 123 0
-130 179 81 123 0
-130 137 81 123 0
-131 180 138 82 0
-131 180 138 124 0
-131 180 82 124 0
-131 138 82 124 0
-132 181 139 83 0
-132 181 139 125 0
-132 181 83 125 0
-132 139 83 125 0
-133 182 140 84 0
-133 182 140 126 0
-133 182 84 126 0
-133 140 84 126 0
-127 -176 -134 -78 0
-127 -176 -134 -120 0
-127 -176 -78 -120 0
-127 -134 -78 -120 0
-128 -177 -135 -79 0
-128 -177 -135 -121 0
-128 -177 -79 -121 0
-128 -135 -79 -121 0
-129 -178 -136 -80 0
-129 -178 -136 -122 0
-129 -178 -80 -122 0
-129 -136 -80 -122 0
-130 -179 -137 -81 0
-130 -179 -137 -123 0
-130 -179 -81 -123 0
-130 -137 -81 -123 0
-131 -180 -138 -82 0
-131 -180 -138 -124 0
-131 -180 -82 -124 0
-131 -138 -82 -124 0
-132 -181 -139 -83 0
-132 -181 -139 -125 0
-132 -181 -83 -125 0
-132 -139 -83 -125 0
-133 -182 -140 -84 0
-133 -182 -140 -126 0
-133 -182 -84 -126 0
-133 -140 -84 -126 0
134 135 136 137 138 139 140 0
-134 -383 0
-134 -384 0
-134 -385 0
-135 383 0
-135 -384 0
-135 -385 0
-136 -383 0
-136 384 0
-136 -385 0
-137 383 0
-137 384 0
-137 -385 0
-138 -383 0
-138 -384 0
-138 385 0
-139 383 0
-139 -384 0
-139 385 0
-140 -383 0
-140 384 0
-140 385 0
-134 183 141 85 0
-134 183 141 127 0
-134 183 85 127 0
-134 141 85 127 0
-135 184 142 86 0
-135 184 142 128 0
-135 184 86 128 0
-135 142 86 128 0
-136 185 143 87 0
-136 185 143 129 0
-136 185 87 129 0
-136 143 87 129 0
-137 186 144 88 0
-137 186 144 130 0
-137 186 88 130 0
-137 144 88 130 0
-138 187 145 89 0
-138 187 145 131 0
-138 187 89 131 0
-138 145 89 131 0
-139 188 146 90 0
-139 188 146 132 0
-139 188 90 132 0
-139 146 90 132 0
-140 189 147 91 0
-140 189 147 133 0
-140 189 91 133 0
-140 147 91 133 0
-134 -183 -141 -85 0
-134 -183 -141 -127 0
-134 -183 -85 -127 0
-134 -141 -85 -127 0
-135 -184 -142 -86 0
-135 -184 -142 -128 0
-135 -184 -86 -128 0
-135 -142 -86 -128 0
-136 -185 -143 -87 0
-136 -185 -143 -129 0
-136 -185 -87 -129 0
-136 -143 -87 -129 0
-137 -186 -144 -88 0
-137 -186 -144 -130 0
-137 -186 -88 -130 0
-137 -144 -88 -130 0
-138 -187 -145 -89 0
-138 -187 -145 -131 0
-138 -187 -89 -131 0
-138 -145 -89 -131 0
-139 -188 -146 -90 0
-139 -188 -146 -132 0
-139 -188 -90 -132 0
-139 -146 -90 -132 0
-140 -189 -147 -91 0
-140 -189 -147 -133 0
-140 -189 -91 -133 0
-140 -147 -91 -133 0
145 0
-141 0
-142 0
-143 0
-144 0
-146 0
-147 0
194 138 96 0
-194 -138 0
-194 -96 0
-138 -96 0
148 149 150 151 152 153 154 0
-148 -386 0
-148 -387 0
-148 -388 0
-149 386 0
-149 -387 0
-149 -388 0
-150 -386 0
-150 387 0
-150 -388 0
-151 386 0
-151 387 0
-151 -388 0
-152 -386 0
-152 -387 0
-152 388 0
-153 386 0
-153 -387 0
-153 388 0
-154 -386 0
-154 387 0
-154 388 0
-148 197 155 0
-148 197 99 0
-148 155 99 0
-149 198 156 0
-149 198 100 0
-149 156 100 0
-150 199 157 0
-150 199 101 0
-150 157 101 0
-151 200 158 0
-151 200 102 0
-151 158 102 0
-152 201 159 0
-152 201 103 0
-152 159 103 0
-153 202 160 0
-153 202 104 0
-153 160 104 0
-154 203 161 0
-154 203 105 0
-154 161 105 0
-148 -197 -155 -99 0
-149 -198 -156 -100 0
-150 -199 -157 -101 0
-151 -200 -158 -102 0
-152 -201 -159 -103 0
-153 -202 -160 -104 0
-154 -203 -161 -105 0
160 0
-155 0
-156 0
-157 0
-158 0
-159 0
-161 0
209 167 111 153 0
-209 -167 0
-209 -111 0
-209 -153 0
-167 -111 0
-167 -153 0
-111 -153 0
162 163 164 165 166 167 168 0
-162 -389 0
-162 -390 0
-162 -391 0
-163 389 0
-163 -390 0
-163 -391 0
-164 -389 0
-164 390 0
-164 -391 0
-165 389 0
-165 390 0
-165 -391 0
-166 -389 0
-166 -390 0
-166 391 0
-167 389 0
-167 -390 0
-167 391 0
-168 -389 0
-168 390 0
-168 391 0
-162 211 169 113 0
-162 211 169 155 0
-162 211 113 155 0
-162 169 113 155 0
-163 212 170 114 0
-163 212 170 156 0
-163 212 114 156 0
-163 170 114 156 0
-164 213 171 115 0
-164 213 171 157 0
-164 213 115 157 0
-164 171 115 157 0
-165 214 172 116 0
-165 214 172 158 0
-165 214 116 158 0
-165 172 116 158 0
-166 215 173 117 0
-166 215 173 159 0
-166 215 117 159 0
-166 173 117 159 0
-167 216 174 118 0
-167 216 174 160 0
-167 216 118 160 0
-167 174 118 160 0
-168 217 175 119 0
-168 217 175 161 0
-168 217 119 161 0
-168 175 119 161 0
-162 -211 -169 -113 0
-162 -211 -169 -155 0
-162 -211 -113 -155 0
-162 -169 -113 -155 0
-163 -212 -170 -114 0
-163 -212 -170 -156 0
-163 -212 -114 -156 0
-163 -170 -114 -156 0
-164 -213 -171 -115 0
-164 -213 -171 -157 0
-164 -213 -115 -157 0
-164 -171 -115 -157 0
-165 -214 -172 -116 0
-165 -214 -172 -158 0
-165 -214 -116 -158 0
-165 -172 -116 -158 0
-166 -215 -173 -117 0
-166 -215 -173 -159 0
-166 -215 -117 -159 0
-166 -173 -117 -159 0
-167 -216 -174 -118 0
-167 -216 -174 -160 0
-167 -216 -118 -160 0
-167 -174 -118 -160 0
-168 -217 -175 -119 0
-168 -217 -175 -161 0
-168 -217 -119 -161 0
-168 -175 -119 -161 0
173 0
-169 0
-170 0
-171 0
-172 0
-174 0
-175 0
222 180 124 166 0
-222 -180 0
-222 -124 0
-222 -166 0
-180 -124 0
-180 -166 0
-124 -166 0
176 177 178 179 180 181 182 0
-176 -392 0
-176 -393 0
-176 -394 0
-177 392 0
-177 -393 0
-177 -394 0
-178 -392 0
-178 393 0
-178 -394 0
-179 392 0
-179 393 0
-179 -394 0
-180 -392 0
-180 -393 0
-180 394 0
-181 392 0
-181 -393 0
-181 394 0
-182 -392 0
-182 393 0
-182 394 0
-176 225 183 127 0
-176 225 183 169 0
-176 225 127 169 0
-176 183 127 169 0
-177 226 184 128 0
-177 226 184 170 0
-177 226 128 170 0
-177 184 128 170 0
-178 227 185 129 0
-178 227 185 171 0
-178 227 129 171 0
-178 185 129 171 0
-179 228 186 130 0
-179 228 186 172 0
-179 228 130 172 0
-179 186 130 172 0
-180 229 187 131 0
-180 229 187 173 0
-180 229 131 173 0
-180 187 131 173 0
-181 230 188 132 0
-181 230 188 174 0
-181 230 132 174 0
-181 188 132 174 0
-182 231 189 133 0
-182 231 189 175 0
-182 231 133 175 0
-182 189 133 175 0
-176 -225 -183 -127 0
-176 -225 -183 -169 0
-176 -225 -127 -169 0
-176 -183 -127 -169 0
-177 -226 -184 -128 0
-177 -226 -184 -170 0
-177 -226 -128 -170 0
-177 -184 -128 -170 0
-178 -227 -185 -129 0
-178 -227 -185 -171 0
-178 -227 -129 -171 0
-178 -185 -129 -171 0
-179 -228 -186 -130 0
-179 -228 -186 -172 0
-179 -228 -130 -172 0
-179 -186 -130 -172 0
-180 -229 -187 -131 0
-180 -229 -187 -173 0
-180 -229 -131 -173 0
-180 -187 -131 -173 0
-181 -230 -188 -132 0
-181 -230 -188 -174 0
-181 -230 -132 -174 0
-181 -188 -132 -174 0
-182 -231 -189 -133 0
-182 -231 -189 -175 0
-182 -231 -133 -175 0
-182 -189 -133 -175 0
183 184 185 186 187 188 189 0
-183 -395 0
-183 -396 0
-183 -397 0
-184 395 0
-184 -396 0
-184 -397 0
-185 -395 0
-185 396 0
-185 -397 0
-186 395 0
-186 396 0
-186 -397 0
-187 -395 0
-187 -396 0
-187 397 0
-188 395 0
-188 -396 0
-188 397 0
-189 -395 0
-189 396 0
-189 397 0
-183 232 190 134 0
-183 232 190 176 0
-183 232 134 176 0
-183 190 134 176 0
-184 233 191 135 0
-184 233 191 177 0
-184 233 135 177 0
-184 191 135 177 0
-185 234 192 136 0
-185 234 192 178 0
-185 234 136 178 0
-185 192 136 178 0
-186 235 193 137 0
-186 235 193 179 0
-186 235 137 179 0
-186 193 137 179 0
-187 236 194 138 0
-187 236 194 180 0
-187 236 138 180 0
-187 194 138 180 0
-188 237 195 139 0
-188 237 195 181 0
-188 237 139 181 0
-188 195 139 181 0
-189 238 196 140 0
-189 238 196 182 0
-189 238 140 182 0
-189 196 140 182 0
-183 -232 -190 -134 0
-183 -232 -190 -176 0
-183 -232 -134 -176 0
-183 -190 -134 -176 0
-184 -233 -191 -135 0
-184 -233 -191 -177 0
-184 -233 -135 -177 0
-184 -191 -135 -177 0
-185 -234 -192 -136 0
-185 -234 -192 -178 0
-185 -234 -136 -178 0
-185 -192 -136 -178 0
-186 -235 -193 -137 0
-186 -235 -193 -179 0
-186 -235 -137 -179 0
-186 -193 -137 -179 0
-187 -236 -194 -138 0
-187 -236 -194 -180 0
-187 -236 -138 -180 0
-187 -194 -138 -180 0
-188 -237 -195 -139 0
-188 -237 -195 -181 0
-188 -237 -139 -181 0
-188 -195 -139 -181 0
-189 -238 -196 -140 0
-189 -238 -196 -182 0
-189 -238 -140 -182 0
-189 -196 -140 -182 0
191 0
-190 0
-192 0
-193 0
-194 0
-195 0
-196 0
240 184 142 0
-240 -184 0
-240 -142 0
-184 -142 0
197 198 199 200 201 202 203 0
-197 -398 0
-197 -399 0
-197 -400 0
-198 398 0
-198 -399 0
-198 -400 0
-199 -398 0
-199 399 0
-199 -400 0
-200 398 0
-200 399 0
-200 -400 0
-201 -398 0
-201 -399 0
-201 400 0
-202 398 0
-202 -399 0
-202 400 0
-203 -398 0
-203 399 0
-203 400 0
-197 246 204 0
-197 246 148 0
-197 204 148 0
-198 247 205 0
-198 247 149 0
-198 205 149 0
-199 248 206 0
-199 248 150 0
-199 206 150 0
-200 249 207 0
-200 249 151 0
-200 207 151 0
-201 250 208 0
-201 250 152 0
-201 208 152 0
-202 251 209 0
-202 251 153 0
-202 209 153 0
-203 252 210 0
-203 252 154 0
-203 210 154 0
-197 -246 -204 -148 0
-198 -247 -205 -149 0
-199 -248 -206 -150 0
-200 -249 -207 -151 0
-201 -250 -208 -152 0
-202 -251 -209 -153 0
-203 -252 -210 -154 0
204 205 206 207 208 209 210 0
-204 -401 0
-204 -402 0
-204 -403 0
-205 401 0
-205 -402 0
-205 -403 0
-206 -401 0
-206 402 0
-206 -403 0
-207 401 0
-207 402 0
-207 -403 0
-208 -401 0
-208 -402 0
-208 403 0
-209 401 0
-209 -402 0
-209 403 0
-210 -401 0
-210 402 0
-210 403 0
-204 253 211 155 0
-204 253 211 197 0
-204 253 155 197 0
-204 211 155 197 0
-205 254 212 156 0
-205 254 212 198 0
-205 254 156 198 0
-205 212 156 198 0
-206 255 213 157 0
-206 255 213 199 0
-206 255 157 199 0
-206 213 157 199 0
-207 256 214 158 0
-207 256 214 200 0
-207 256 158 200 0
-207 214 158 200 0
-208 257 215 159 0
-208 257 215 201 0
-208 257 159 201 0
-208 215 159 201 0
-209 258 216 160 0
-209 258 216 202 0
-209 258 160 202 0
-209 216 160 202 0
-210 259 217 161 0
-210 259 217 203 0
-210 259 161 203 0
-210 217 161 203 0
-204 -253 -211 -155 0
-204 -253 -211 -197 0
-204 -253 -155 -197 0
-204 -211 -155 -197 0
-205 -254 -212 -156 0
-205 -254 -212 -198 0
-205 -254 -156 -198 0
-205 -212 -156 -198 0
-206 -255 -213 -157 0
-206 -255 -213 -199 0
-206 -255 -157 -199 0
-206 -213 -157 -199 0
-207 -256 -214 -158 0
-207 -256 -214 -200 0
-207 -256 -158 -200 0
-207 -214 -158 -200 0
-208 -257 -215 -159 0
-208 -257 -215 -201 0
-208 -257 -159 -201 0
-208 -215 -159 -201 0
-209 -258 -216 -160 0
-209 -258 -216 -202 0
-209 -258 -160 -202 0
-209 -216 -160 -202 0
-210 -259 -217 -161 0
-210 -259 -217 -203 0
-210 -259 -161 -203 0
-210 -217 -161 -203 0
211 212 213 214 215 216 217 0
-211 -404 0
-211 -405 0
-211 -406 0
-212 404 0
-212 -405 0
-212 -406 0
-213 -404 0
-213 405 0
-213 -406 0
-214 404 0
-214 405 0
-214 -406 0
-215 -404 0
-215 -405 0
-215 406 0
-216 404 0
-216 -405 0
-216 406 0
-217 -404 0
-217 405 0
-217 406 0
-211 260 218 162 0
-211 260 218 204 0
-211 260 162 204 0
-211 218 162 204 0
-212 261 219 163 0
-212 261 219 205 0
-212 261 163 205 0
-212 219 163 205 0
-213 262 220 164 0
-213 262 220 206 0
-213 262 164 206 0
-213 220 164 206 0
-214 263 221 165 0
-214 263 221 207 0
-214 263 165 207 0
-214 221 165 207 0
-215 264 222 166 0
-215 264 222 208 0
-215 264 166 208 0
-215 222 166 208 0
-216 265 223 167 0
-216 265 223 209 0
-216 265 167 209 0
-216 223 167 209 0
-217 266 224 168 0
-217 266 224 210 0
-217 266 168 210 0
-217 224 168 210 0
-211 -260 -218 -162 0
-211 -260 -218 -204 0
-211 -260 -162 -204 0
-211 -218 -162 -204 0
-212 -261 -219 -163 0
-212 -261 -219 -205 0
-212 -261 -163 -205 0
-212 -219 -163 -205 0
-213 -262 -220 -164 0
-213 -262 -220 -206 0
-213 -262 -164 -206 0
-213 -220 -164 -206 0
-214 -263 -221 -165 0
-214 -263 -221 -207 0
-214 -263 -165 -207 0
-214 -221 -165 -207 0
-215 -264 -222 -166 0
-215 -264 -222 -208 0
-215 -264 -166 -208 0
-215 -222 -166 -208 0
-216 -265 -223 -167 0
-216 -265 -223 -209 0
-216 -265 -167 -209 0
-216 -223 -167 -209 0
-217 -266 -224 -168 0
-217 -266 -224 -210 0
-217 -266 -168 -210 0
-217 -224 -168 -210 0
218 219 220 221 222 223 224 0
-218 -407 0
-218 -408 0
-218 -409 0
-219 407 0
-219 -408 0
-219 -409 0
-220 -407 0
-220 408 0
-220 -409 0
-221 407 0
-221 408 0
-221 -409 0
-222 -407 0
-222 -408 0
-222 409 0
-223 407 0
-223 -408 0
-223 409 0
-224 -407 0
-224 408 0
-224 409 0
-218 267 225 169 0
-218 267 225 211 0
-218 267 169 211 0
-218 225 169 211 0
-219 268 226 170 0
-219 268 226 212 0
-219 268 170 212 0
-219 226 170 212 0
-220 269 227 171 0
-220 269 227 213 0
-220 269 171 213 0
-220 227 171 213 0
-221 270 228 172 0
-221 270 228 214 0
-221 270 172 214 0
-221 228 172 214 0
-222 271 229 173 0
-222 271 229 215 0
-222 271 173 215 0
-222 229 173 215 0
-223 272 230 174 0
-223 272 230 216 0
-223 272 174 216 0
-223 230 174 216 0
-224 273 231 175 0
-224 273 231 217 0
-224 273 175 217 0
-224 231 175 217 0
-218 -267 -225 -169 0
-218 -267 -225 -211 0
-218 -267 -169 -211 0
-218 -225 -169 -211 0
-219 -268 -226 -170 0
-219 -268 -226 -212 0
-219 -268 -170 -212 0
-219 -226 -170 -212 0
-220 -269 -227 -171 0
-220 -269 -227 -213 0
-220 -269 -171 -213 0
-220 -227 -171 -213 0
-221 -270 -228 -172 0
-221 -270 -228 -214 0
-221 -270 -172 -214 0
-221 -228 -172 -214 0
-222 -271 -229 -173 0
-222 -271 -229 -215 0
-222 -271 -173 -215 0
-222 -229 -173 -215 0
-223 -272 -230 -174 0
-223 -272 -230 -216 0
-223 -272 -174 -216 0
-223 -230 -174 -216 0
-224 -273 -231 -175 0
-224 -273 -231 -217 0
-224 -273 -175 -217 0
-224 -231 -175 -217 0
225 226 227 228 229 230 231 0
-225 -410 0
-225 -411 0
-225 -412 0
-226 410 0
-226 -411 0
-226 -412 0
-227 -410 0
-227 411 0
-227 -412 0
-228 410 0
-228 411 0
-228 -412 0
-229 -410 0
-229 -411 0
-229 412 0
-230 410 0
-230 -411 0
-230 412 0
-231 -410 0
-231 411 0
-231 412 0
-225 274 232 176 0
-225 274 232 218 0
-225 274 176 218 0
-225 232 176 218 0
-226 275 233 177 0
-226 275 233 219 0
-226 275 177 219 0
-226 233 177 219 0
-227 276 234 178 0
-227 276 234 220 0
-227 276 178 220 0
-227 234 178 220 0
-228 277 235 179 0
-228 277 235 221 0
-228 277 179 221 0
-228 235 179 221 0
-229 278 236 180 0
-229 278 236 222 0
-229 278 180 222 0
-229 236 180 222 0
-230 279 237 181 0
-230 279 237 223 0
-230 279 181 223 0
-230 237 181 223 0
-231 280 238 182 0
-231 280 238 224 0
-231 280 182 224 0
-231 238 182 224 0
-225 -274 -232 -176 0
-225 -274 -232 -218 0
-225 -274 -176 -218 0
-225 -232 -176 -218 0
-226 -275 -233 -177 0
-226 -275 -233 -219 0
-226 -275 -177 -219 0
-226 -233 -177 -219 0
-227 -276 -234 -178 0
-227 -276 -234 -220 0
-227 -276 -178 -220 0
-227 -234 -178 -220 0
-228 -277 -235 -179 0
-228 -277 -235 -221 0
-228 -277 -179 -221 0
-228 -235 -179 -221 0
-229 -278 -236 -180 0
-229 -278 -236 -222 0
-229 -278 -180 -222 0
-229 -236 -180 -222 0
-230 -279 -237 -181 0
-230 -279 -237 -223 0
-230 -279 -181 -223 0
-230 -237 -181 -223 0
-231 -280 -238 -182 0
-231 -280 -238 -224 0
-231 -280 -182 -224 0
-231 -238 -182 -224 0
232 233 234 235 236 237 238 0
-232 -413 0
-232 -414 0
-232 -415 0
-233 413 0
-233 -414 0
-233 -415 0
-234 -413 0
-234 414 0
-234 -415 0
-235 413 0
-235 414 0
-235 -415 0
-236 -413 0
-236 -414 0
-236 415 0
-237 413 0
-237 -414 0
-237 415 0
-238 -413 0
-238 414 0
-238 415 0
-232 281 239 183 0
-232 281 239 225 0
-232 281 183 225 0
-232 239 183 225 0
-233 282 240 184 0
-233 282 240 226 0
-233 282 184 226 0
-233 240 184 226 0
-234 283 241 185 0
-234 283 241 227 0
-234 283 185 227 0
-234 241 185 227 0
-235 284 242 186 0
-235 284 242 228 0
-235 284 186 228 0
-235 242 186 228 0
-236 285 243 187 0
-236 285 243 229 0
-236 285 187 229 0
-236 243 187 229 0
-237 286 244 188 0
-237 286 244 230 0
-237 286 188 230 0
-237 244 188 230 0
-238 287 245 189 0
-238 287 245 231 0
-238 287 189 231 0
-238 245 189 231 0
-232 -281 -239 -183 0
-232 -281 -239 -225 0
-232 -281 -183 -225 0
-232 -239 -183 -225 0
-233 -282 -240 -184 0
-233 -282 -240 -226 0
-233 -282 -184 -226 0
-233 -240 -184 -226 0
-234 -283 -241 -185 0
-234 -283 -241 -227 0
-234 -283 -185 -227 0
-234 -241 -185 -227 0
-235 -284 -242 -186 0
-235 -284 -242 -228 0
-235 -284 -186 -228 0
-235 -242 -186 -228 0
-236 -285 -243 -187 0
-236 -285 -243 -229 0
-236 -285 -187 -229 0
-236 -243 -187 -229 0
-237 -286 -244 -188 0
-237 -286 -244 -230 0
-237 -286 -188 -230 0
-237 -244 -188 -230 0
-238 -287 -245 -189 0
-238 -287 -245 -231 0
-238 -287 -189 -231 0
-238 -245 -189 -231 0
245 0
-239 0
-240 0
-241 0
-242 0
-243 0
-244 0
294 238 196 0
-294 -238 0
-294 -196 0
-238 -196 0
246 247 248 249 250 251 252 0
-246 -416 0
-246 -417 0
-246 -418 0
-247 416 0
-247 -417 0
-247 -418 0
-248 -416 0
-248 417 0
-248 -418 0
-249 416 0
-249 417 0
-249 -418 0
-250 -416 0
-250 -417 0
-250 418 0
-251 416 0
-251 -417 0
-251 418 0
-252 -416 0
-252 417 0
-252 418 0
-246 295 253 0
-246 295 197 0
-246 253 197 0
-247 296 254 0
-247 296 198 0
-247 254 198 0
-248 297 255 0
-248 297 199 0
-248 255 199 0
-249 298 256 0
-249 298 200 0
-249 256 200 0
-250 299 257 0
-250 299 201 0
-250 257 201 0
-251 300 258 0
-251 300 202 0
-251 258 202 0
-252 301 259 0
-252 301 203 0
-252 259 203 0
-246 -295 -253 -197 0
-247 -296 -254 -198 0
-248 -297 -255 -199 0
-249 -298 -256 -200 0
-250 -299 -257 -201 0
-251 -300 -258 -202 0
-252 -301 -259 -203 0
253 254 255 256 257 258 259 0
-253 -419 0
-253 -420 0
-253 -421 0
-254 419 0
-254 -420 0
-254 -421 0
-255 -419 0
-255 420 0
-255 -421 0
-256 419 0
-256 420 0
-256 -421 0
-257 -419 0
-257 -420 0
-257 421 0
-258 419 0
-258 -420 0
-258 421 0
-259 -419 0
-259 420 0
-259 421 0
-253 302 260 204 0
-253 302 260 246 0
-253 302 204 246 0
-253 260 204 246 0
-254 303 261 205 0
-254 303 261 247 0
-254 303 205 247 0
-254 261 205 247 0
-255 304 262 206 0
-255 304 262 248 0
-255 304 206 248 0
-255 262 206 248 0
-256 305 263 207 0
-256 305 263 249 0
-256 305 207 249 0
-256 263 207 249 0
-257 306 264 208 0
-257 306 264 250 0
-257 306 208 250 0
-257 264 208 250 0
-258 307 265 209 0
-258 307 265 251 0
-258 307 209 251 0
-258 265 209 251 0
-259 308 266 210 0
-259 308 266 252 0
-259 308 210 252 0
-259 266 210 252 0
-253 -302 -260 -204 0
-253 -302 -260 -246 0
-253 -302 -204 -246 0
-253 -260 -204 -246 0
-254 -303 -261 -205 0
-254 -303 -261 -247 0
-254 -303 -205 -247 0
-254 -261 -205 -247 0
-255 -304 -262 -206 0
-255 -304 -262 -248 0
-255 -304 -206 -248 0
-255 -262 -206 -248 0
-256 -305 -263 -207 0
-256 -305 -263 -249 0
-256 -305 -207 -249 0
-256 -263 -207 -249 0
-257 -306 -264 -208 0
-257 -306 -264 -250 0
-257 -306 -208 -250 0
-257 -264 -208 -250 0
-258 -307 -265 -209 0
-258 -307 -265 -251 0
-258 -307 -209 -251 0
-258 -265 -209 -251 0
-259 -308 -266 -210 0
-259 -308 -266 -252 0
-259 -308 -210 -252 0
-259 -266 -210 -252 0
260 261 262 263 264 265 266 0
-260 -422 0
-260 -423 0
-260 -424 0
-261 422 0
-261 -423 0
-261 -424 0
-262 -422 0
-262 423 0
-262 -424 0
-263 422 0
-263 423 0
-263 -424 0
-264 -422 0
-264 -423 0
-264 424 0
-265 422 0
-265 -423 0
-265 424 0
-266 -422 0
-266 423 0
-266 424 0
-260 309 267 211 0
-260 309 267 253 0
-260 309 211 253 0
-260 267 211 253 0
-261 310 268 212 0
-261 310 268 254 0
-261 310 212 254 0
-261 268 212 254 0
-262 311 269 213 0
-262 311 269 255 0
-262 311 213 255 0
-262 269 213 255 0
-263 312 270 214 0
-263 312 270 256 0
-263 312 214 256 0
-263 270 214 256 0
-264 313 271 215 0
-264 313 271 257 0
-264 313 215 257 0
-264 271 215 257 0
-265 314 272 216 0
-265 314 272 258 0
-265 314 216 258 0
-265 272 216 258 0
-266 315 273 217 0
-266 315 273 259 0
-266 315 217 259 0
-266 273 217 259 0
-260 -309 -267 -211 0
-260 -309 -267 -253 0
-260 -309 -211 -253 0
-260 -267 -211 -253 0
-261 -310 -268 -212 0
-261 -310 -268 -254 0
-261 -310 -212 -254 0
-261 -268 -212 -254 0
-262 -311 -269 -213 0
-262 -311 -269 -255 0
-262 -311 -213 -255 0
-262 -269 -213 -255 0
-263 -312 -270 -214 0
-263 -312 -270 -256 0
-263 -312 -214 -256 0
-263 -270 -214 -256 0
-264 -313 -271 -215 0
-264 -313 -271 -257 0
-264 -313 -215 -257 0
-264 -271 -215 -257 0
-265 -314 -272 -216 0
-265 -314 -272 -258 0
-265 -314 -216 -258 0
-265 -272 -216 -258 0
-266 -315 -273 -217 0
-266 -315 -273 -259 0
-266 -315 -217 -259 0
-266 -273 -217 -259 0
272 0
-267 0
-268 0
-269 0
-270 0
-271 0
-273 0
321 279 223 265 0
-321 -279 0
-321 -223 0
-321 -265 0
-279 -223 0
-279 -265 0
-223 -265 0
274 275 276 277 278 279 280 0
-274 -425 0
-274 -426 0
-274 -427 0
-275 425 0
-275 -426 0
-275 -427 0
-276 -425 0
-276 426 0
-276 -427 0
-277 425 0
-277 426 0
-277 -427 0
-278 -425 0
-278 -426 0
-278 427 0
-279 425 0
-279 -426 0
-279 427 0
-280 -425 0
-280 426 0
-280 427 0
-274 323 281 225 0
-274 323 281 267 0
-274 323 225 267 0
-274 281 225 267 0
-275 324 282 226 0
-275 324 282 268 0
-275 324 226 268 0
-275 282 226 268 0
-276 325 283 227 0
-276 325 283 269 0
-276 325 227 269 0
-276 283 227 269 0
-277 326 284 228 0
-277 326 284 270 0
-277 326 228 270 0
-277 284 228 270 0
-278 327 285 229 0
-278 327 285 271 0
-278 327 229 271 0
-278 285 229 271 0
-279 328 286 230 0
-279 328 286 272 0
-279 328 230 272 0
-279 286 230 272 0
-280 329 287 231 0
-280 329 287 273 0
-280 329 231 273 0
-280 287 231 273 0
-274 -323 -281 -225 0
-274 -323 -281 -267 0
-274 -323 -225 -267 0
-274 -281 -225 -267 0
-275 -324 -282 -226 0
-275 -324 -282 -268 0
-275 -324 -226 -268 0
-275 -282 -226 -268 0
-276 -325 -283 -227 0
-276 -325 -283 -269 0
-276 -325 -227 -269 0
-276 -283 -227 -269 0
-277 -326 -284 -228 0
-277 -326 -284 -270 0
-277 -326 -228 -270 0
-277 -284 -228 -270 0
-278 -327 -285 -229 0
-278 -327 -285 -271 0
-278 -327 -229 -271 0
-278 -285 -229 -271 0
-279 -328 -286 -230 0
-279 -328 -286 -272 0
-279 -328 -230 -272 0
-279 -286 -230 -272 0
-280 -329 -287 -231 0
-280 -329 -287 -273 0
-280 -329 -231 -273 0
-280 -287 -231 -273 0
281 282 283 284 285 286 287 0
-281 -428 0
-281 -429 0
-281 -430 0
-282 428 0
-282 -429 0
-282 -430 0
-283 -428 0
-283 429 0
-283 -430 0
-284 428 0
-284 429 0
-284 -430 0
-285 -428 0
-285 -429 0
-285 430 0
-286 428 0
-286 -429 0
-286 430 0
-287 -428 0
-287 429 0
-287 430 0
-281 330 288 232 0
-281 330 288 274 0
-281 330 232 274 0
-281 288 232 274 0
-282 331 289 233 0
-282 331 289 275 0
-282 331 233 275 0
-282 289 233 275 0
-283 332 290 234 0
-283 332 290 276 0
-283 332 234 276 0
-283 290 234 276 0
-284 333 291 235 0
-284 333 291 277 0
-284 333 235 277 0
-284 291 235 277 0
-285 334 292 236 0
-285 334 292 278 0
-285 334 236 278 0
-285 292 236 278 0
-286 335 293 237 0
-286 335 293 279 0
-286 335 237 279 0
-286 293 237 279 0
-287 336 294 238 0
-287 336 294 280 0
-287 336 238 280 0
-287 294 238 280 0
-281 -330 -288 -232 0
-281 -330 -288 -274 0
-281 -330 -232 -274 0
-281 -288 -232 -274 0
-282 -331 -289 -233 0
-282 -331 -289 -275 0
-282 -331 -233 -275 0
-282 -289 -233 -275 0
-283 -332 -290 -234 0
-283 -332 -290 -276 0
-283 -332 -234 -276 0
-283 -290 -234 -276 0
-284 -333 -291 -235 0
-284 -333 -291 -277 0
-284 -333 -235 -277 0
-284 -291 -235 -277 0
-285 -334 -292 -236 0
-285 -334 -292 -278 0
-285 -334 -236 -278 0
-285 -292 -236 -278 0
-286 -335 -293 -237 0
-286 -335 -293 -279 0
-286 -335 -237 -279 0
-286 -293 -237 -279 0
-287 -336 -294 -238 0
-287 -336 -294 -280 0
-287 -336 -238 -280 0
-287 -294 -238 -280 0
288 0
-289 0
-290 0
-291 0
-292 0
-293 0
-294 0
337 281 239 0
-337 -281 0
-337 -239 0
-281 -239 0
295 296 297 298 299 300 301 0
-295 -431 0
-295 -432 0
-295 -433 0
-296 431 0
-296 -432 0
-296 -433 0
-297 -431 0
-297 432 0
-297 -433 0
-298 431 0
-298 432 0
-298 -433 0
-299 -431 0
-299 -432 0
-299 433 0
-300 431 0
-300 -432 0
-300 433 0
-301 -431 0
-301 432 0
-301 433 0
-295 246 0
-295 302 0
-296 247 0
-296 303 0
-297 248 0
-297 304 0
-298 249 0
-298 305 0
-299 250 0
-299 306 0
-300 251 0
-300 307 0
-301 252 0
-301 308 0
302 303 304 305 306 307 308 0
-302 -434 0
-302 -435 0
-302 -436 0
-303 434 0
-303 -435 0
-303 -436 0
-304 -434 0
-304 435 0
-304 -436 0
-305 434 0
-305 435 0
-305 -436 0
-306 -434 0
-306 -435 0
-306 436 0
-307 434 0
-307 -435 0
-307 436 0
-308 -434 0
-308 435 0
-308 436 0
-302 253 309 0
-302 253 295 0
-302 309 295 0
-303 254 310 0
-303 254 296 0
-303 310 296 0
-304 255 311 0
-304 255 297 0
-304 311 297 0
-305 256 312 0
-305 256 298 0
-305 312 298 0
-306 257 313 0
-306 257 299 0
-306 313 299 0
-307 258 314 0
-307 258 300 0
-307 314 300 0
-308 259 315 0
-308 259 301 0
-308 315 301 0
-302 -253 -309 -295 0
-303 -254 -310 -296 0
-304 -255 -311 -297 0
-305 -256 -312 -298 0
-306 -257 -313 -299 0
-307 -258 -314 -300 0
-308 -259 -315 -301 0
309 310 311 312 313 314 315 0
-309 -437 0
-309 -438 0
-309 -439 0
-310 437 0
-310 -438 0
-310 -439 0
-311 -437 0
-311 438 0
-311 -439 0
-312 437 0
-312 438 0
-312 -439 0
-313 -437 0
-313 -438 0
-313 439 0
-314 437 0
-314 -438 0
-314 439 0
-315 -437 0
-315 438 0
-315 439 0
-309 260 316 0
-309 260 302 0
-309 316 302 0
-310 261 317 0
-310 261 303 0
-310 317 303 0
-311 262 318 0
-311 262 304 0
-311 318 304 0
-312 263 319 0
-312 263 305 0
-312 319 305 0
-313 264 320 0
-313 264 306 0
-313 320 306 0
-314 265 321 0
-314 265 307 0
-314 321 307 0
-315 266 322 0
-315 266 308 0
-315 322 308 0
-309 -260 -316 -302 0
-310 -261 -317 -303 0
-311 -262 -318 -304 0
-312 -263 -319 -305 0
-313 -264 -320 -306 0
-314 -265 -321 -307 0
-315 -266 -322 -308 0
316 317 318 319 320 321 322 0
-316 -440 0
-316 -441 0
-316 -442 0
-317 440 0
-317 -441 0
-317 -442 0
-318 -440 0
-318 441 0
-318 -442 0
-319 440 0
-319 441 0
-319 -442 0
-320 -440 0
-320 -441 0
-320 442 0
-321 440 0
-321 -441 0
-321 442 0
-322 -440 0
-322 441 0
-322 442 0
-316 267 323 0
-316 267 309 0
-316 323 309 0
-317 268 324 0
-317 268 310 0
-317 324 310 0
-318 269 325 0
-318 269 311 0
-318 325 311 0
-319 270 326 0
-319 270 312 0
-319 326 312 0
-320 271 327 0
-320 271 313 0
-320 327 313 0
-321 272 328 0
-321 272 314 0
-321 328 314 0
-322 273 329 0
-322 273 315 0
-322 329 315 0
-316 -267 -323 -309 0
-317 -268 -324 -310 0
-318 -269 -325 -311 0
-319 -270 -326 -312 0
-320 -271 -327 -313 0
-321 -272 -328 -314 0
-322 -273 -329 -315 0
323 324 325 326 327 328 329 0
-323 -443 0
-323 -444 0
-323 -445 0
-324 443 0
-324 -444 0
-324 -445 0
-325 -443 0
-325 444 0
-325 -445 0
-326 443 0
-326 444 0
-326 -445 0
-327 -443 0
-327 -444 0
-327 445 0
-328 443 0
-328 -444 0
-328 445 0
-329 -443 0
-329 444 0
-329 445 0
-323 274 330 0
-323 274 316 0
-323 330 316 0
-324 275 331 0
-324 275 317 0
-324 331 317 0
-325 276 332 0
-325 276 318 0
-325 332 318 0
-326 277 333 0
-326 277 319 0
-326 333 319 0
-327 278 334 0
-327 278 320 0
-327 334 320 0
-328 279 335 0
-328 279 321 0
-328 335 321 0
-329 280 336 0
-329 280 322 0
-329 336 322 0
-323 -274 -330 -316 0
-324 -275 -331 -317 0
-325 -276 -332 -318 0
-326 -277 -333 -319 0
-327 -278 -334 -320 0
-328 -279 -335 -321 0
-329 -280 -336 -322 0
330 0
-331 0
-332 0
-333 0
-334 0
-335 0
-336 0
281 337 323 0
-281 -337 0
-281 -323 0
-337 -323 0
337 338 339 340 341 342 343 0
-337 -446 0
-337 -447 0
-337 -448 0
-338 446 0
-338 -447 0
-338 -448 0
-339 -446 0
-339 447 0
-339 -448 0
-340 446 0
-340 447 0
-340 -448 0
-341 -446 0
-341 -447 0
-341 448 0
-342 446 0
-342 -447 0
-342 448 0
-343 -446 0
-343 447 0
-343 448 0
-337 288 0
-337 330 0
-338 289 0
-338 331 0
-339 290 0
-339 332 0
-340 291 0
-340 333 0
-341 292 0
-341 334 0
-342 293 0
-342 335 0
-343 294 0
-343 336 0